language Essence 1.3

letting class be function(1 --> 3, 2 --> 3, 3 --> 2, 4 --> 2, 5 --> 1, 6 --> 1, 7 --> 1, 8 --> 1)
letting deck_length be 54
letting deck_width be 86
letting length be function(1 --> 21, 2 --> 34, 3 --> 18, 4 --> 15, 5 --> 46, 6 --> 21, 7 --> 42, 8 --> 27)
letting n_classes be 3
letting n_containers be 8
letting separation be function({1, 3} --> 32, {2, 3} --> 1)
letting width be function(1 --> 2, 2 --> 12, 3 --> 1, 4 --> 32, 5 --> 48, 6 --> 6, 7 --> 5, 8 --> 11)
